N = 11;
H = 6;
T = 2;

avail = array3d(1..N, 1..H, 1..T, [10, 4, 9, 4, 10, 4, 2, 9, 1, 2, 1, 8, 3, 0, 8, 10, 0, 0, 10, 5, 2, 7, 10, 1, 9, 7, 1, 5, 5, 2, 9, 6, 0, 2, 9, 6, 9, 0, 0, 6, 10, 1, 4, 7, 7, 0, 5, 3, 2, 9, 10, 0, 8, 6, 8, 9, 10, 7, 3, 5, 8, 5, 6, 1, 8, 2, 7, 10, 9, 1, 0, 5, 0, 5, 2, 6, 7, 6, 1, 2, 6, 9, 4, 5, 2, 2, 3, 3, 5, 7, 10, 8, 1, 6, 2, 1, 8, 1, 1, 5, 6, 1, 5, 2, 0, 3, 0, 2, 5, 2, 4, 8, 9, 1, 10, 8, 5, 4, 10, 4, 3, 4, 6, 3, 8, 6, 10, 9, 6, 9, 8, 1]);

r = array2d(1..H, 1..T, [3, 1, 2, 4, 5, 2, 5, 1, 3, 1, 0, 1]);
